c ind 10 116 13 131 132 134 135 137 138 140 0
c ind 141 143 144 148 15 150 16 217 219 25 0
c ind 28 288 39 41 43 45 5 50 52 54 0
c ind 6 9 0
p cnf 288 1158
-1 -2 11 0
-1 2 115 0
-100 -30 13 0
-100 30 101 0
-101 -32 102 0
-101 32 56 0
-102 -35 103 0
-102 35 104 0
-103 -47 16 0
-103 47 13 0
-104 -56 13 0
-104 56 105 0
-105 -66 13 0
-105 66 106 0
-106 -71 13 0
-106 71 107 0
-107 -75 13 0
-107 75 108 0
-108 -79 109 0
-108 79 110 0
-109 -82 13 0
-109 82 56 0
-11 -12 14 0
-11 12 17 0
-110 -86 13 0
-110 86 111 0
-111 -89 13 0
-111 89 112 0
-112 -92 13 0
-112 92 113 0
-113 -95 114 0
-113 95 13 0
-114 -97 13 0
-114 97 56 0
-115 -116 15 0
-115 -15 116 0
-117 -118 115 0
-117 118 161 0
-118 -22 119 0
-118 22 66 0
-119 -30 13 0
-119 30 120 0
-12 -13 5 0
-12 -5 13 0
-120 -32 121 0
-120 32 66 0
-121 -35 13 0
-121 35 122 0
-122 -56 123 0
-122 56 151 0
-123 -61 13 0
-123 61 124 0
-124 -63 125 0
-124 63 13 0
-125 -126 145 0
-125 126 13 0
-126 127 0
-126 142 0
-127 128 0
-127 139 0
-128 129 0
-128 136 0
-129 130 0
-129 133 0
-13 0
-130 -131 132 0
-130 -132 131 0
-133 -134 135 0
-133 -135 134 0
-136 -137 138 0
-136 -138 137 0
-139 -140 141 0
-139 -141 140 0
-14 -15 16 0
-14 -16 15 0
-142 -143 144 0
-142 -144 143 0
-145 -146 13 0
-145 146 16 0
-146 147 0
-146 149 0
-147 -13 148 0
-147 -148 13 0
-149 -150 16 0
-149 -16 150 0
-151 -66 13 0
-151 66 152 0
-152 -71 13 0
-152 71 153 0
-153 -75 13 0
-153 75 154 0
-154 -79 155 0
-154 79 156 0
-155 -82 13 0
-155 82 66 0
-156 -86 13 0
-156 86 157 0
-157 -89 13 0
-157 89 158 0
-158 -92 13 0
-158 92 159 0
-159 -95 160 0
-159 95 13 0
-160 -97 13 0
-160 97 66 0
-161 -162 115 0
-161 162 177 0
-162 -22 163 0
-162 22 71 0
-163 -30 13 0
-163 30 164 0
-164 -32 165 0
-164 32 71 0
-165 -35 13 0
-165 35 166 0
-166 -56 13 0
-166 56 167 0
-167 -66 16 0
-167 66 168 0
-168 -71 13 0
-168 71 169 0
-169 -75 13 0
-169 75 170 0
-17 -18 20 0
-17 18 115 0
-170 -79 171 0
-170 79 172 0
-171 -82 13 0
-171 82 71 0
-172 -86 13 0
-172 86 173 0
-173 -89 13 0
-173 89 174 0
-174 -92 13 0
-174 92 175 0
-175 -95 176 0
-175 95 13 0
-176 -97 13 0
-176 97 71 0
-177 -178 193 0
-177 178 194 0
-178 -22 179 0
-178 22 75 0
-179 -30 13 0
-179 30 180 0
-18 19 0
-18 7 0
-180 -32 181 0
-180 32 75 0
-181 -35 13 0
-181 35 182 0
-182 -56 13 0
-182 56 183 0
-183 -66 13 0
-183 66 184 0
-184 -71 16 0
-184 71 185 0
-185 -75 13 0
-185 75 186 0
-186 -79 187 0
-186 79 188 0
-187 -82 13 0
-187 82 75 0
-188 -86 13 0
-188 86 189 0
-189 -89 13 0
-189 89 190 0
-19 -16 9 0
-19 -9 16 0
-190 -92 13 0
-190 92 191 0
-191 -95 192 0
-191 95 13 0
-192 -97 13 0
-192 97 75 0
-193 -13 15 0
-193 -15 13 0
-194 -195 214 0
-194 195 220 0
-195 -22 196 0
-195 22 79 0
-196 -30 13 0
-196 30 197 0
-197 -32 198 0
-197 32 79 0
-198 -35 13 0
-198 35 199 0
-199 -56 200 0
-199 56 204 0
-2 3 7 0
-20 -21 14 0
-20 21 98 0
-200 -61 13 0
-200 61 201 0
-201 -63 202 0
-201 63 13 0
-202 -126 203 0
-202 126 16 0
-203 -146 16 0
-203 146 13 0
-204 -66 13 0
-204 66 205 0
-205 -71 13 0
-205 71 206 0
-206 -75 16 0
-206 75 207 0
-207 -79 208 0
-207 79 209 0
-208 -82 13 0
-208 82 79 0
-209 -86 13 0
-209 86 210 0
-21 -22 29 0
-21 22 35 0
-210 -89 13 0
-210 89 211 0
-211 -92 13 0
-211 92 212 0
-212 -95 213 0
-212 95 13 0
-213 -97 13 0
-213 97 79 0
-214 -215 14 0
-214 215 115 0
-215 216 0
-215 218 0
-216 -16 217 0
-216 -217 16 0
-218 -16 219 0
-218 -219 16 0
-22 23 26 0
-220 -221 115 0
-220 221 237 0
-221 -22 222 0
-221 22 86 0
-222 -30 13 0
-222 30 223 0
-223 -32 224 0
-223 32 86 0
-224 -35 13 0
-224 35 225 0
-225 -56 226 0
-225 56 227 0
-226 -61 16 0
-226 61 13 0
-227 -66 13 0
-227 66 228 0
-228 -71 13 0
-228 71 229 0
-229 -75 13 0
-229 75 230 0
-23 -24 0
-230 -79 231 0
-230 79 232 0
-231 -82 13 0
-231 82 86 0
-232 -86 13 0
-232 86 233 0
-233 -89 13 0
-233 89 234 0
-234 -92 13 0
-234 92 235 0
-235 -95 236 0
-235 95 13 0
-236 -97 13 0
-236 97 86 0
-237 -238 115 0
-237 238 253 0
-238 -22 239 0
-238 22 89 0
-239 -30 13 0
-239 30 240 0
-24 -25 6 0
-24 -6 25 0
-240 -32 241 0
-240 32 89 0
-241 -35 13 0
-241 35 242 0
-242 -56 13 0
-242 56 243 0
-243 -66 13 0
-243 66 244 0
-244 -71 13 0
-244 71 245 0
-245 -75 13 0
-245 75 246 0
-246 -79 247 0
-246 79 248 0
-247 -82 13 0
-247 82 89 0
-248 -86 16 0
-248 86 249 0
-249 -89 13 0
-249 89 250 0
-250 -92 13 0
-250 92 251 0
-251 -95 252 0
-251 95 13 0
-252 -97 13 0
-252 97 89 0
-253 -254 193 0
-253 254 269 0
-254 -22 255 0
-254 22 92 0
-255 -30 13 0
-255 30 256 0
-256 -32 257 0
-256 32 92 0
-257 -35 13 0
-257 35 258 0
-258 -56 13 0
-258 56 259 0
-259 -66 13 0
-259 66 260 0
-26 -27 0
-260 -71 13 0
-260 71 261 0
-261 -75 13 0
-261 75 262 0
-262 -79 263 0
-262 79 264 0
-263 -82 13 0
-263 82 92 0
-264 -86 13 0
-264 86 265 0
-265 -89 16 0
-265 89 266 0
-266 -92 13 0
-266 92 267 0
-267 -95 268 0
-267 95 13 0
-268 -97 13 0
-268 97 92 0
-269 -270 285 0
-269 270 14 0
-27 -10 28 0
-27 -28 10 0
-270 -22 271 0
-270 22 95 0
-271 -30 13 0
-271 30 272 0
-272 -32 273 0
-272 32 95 0
-273 -35 13 0
-273 35 274 0
-274 -56 13 0
-274 56 275 0
-275 -66 13 0
-275 66 276 0
-276 -71 13 0
-276 71 277 0
-277 -75 13 0
-277 75 278 0
-278 -79 279 0
-278 79 280 0
-279 -82 13 0
-279 82 95 0
-280 -86 13 0
-280 86 281 0
-281 -89 13 0
-281 89 282 0
-282 -92 16 0
-282 92 283 0
-283 -95 284 0
-283 95 13 0
-284 -97 13 0
-284 97 95 0
-285 -286 14 0
-285 286 115 0
-286 287 216 0
-287 -16 288 0
-287 -288 16 0
-29 -30 16 0
-29 30 31 0
-3 -4 0
-30 -13 6 0
-30 -6 13 0
-31 -32 34 0
-31 32 35 0
-32 26 0
-32 33 0
-33 -10 16 0
-33 -16 10 0
-34 -35 46 0
-34 35 55 0
-35 36 0
-35 44 0
-36 37 0
-36 42 0
-37 38 0
-37 40 0
-38 -13 39 0
-38 -39 13 0
-4 -5 6 0
-4 -6 5 0
-40 -13 41 0
-40 -41 13 0
-42 -13 43 0
-42 -43 13 0
-44 -13 45 0
-44 -45 13 0
-46 -47 13 0
-46 47 16 0
-47 48 53 0
-48 49 0
-48 51 0
-49 -13 50 0
-49 -50 13 0
-51 -13 52 0
-51 -52 13 0
-53 -13 54 0
-53 -54 13 0
-55 -56 60 0
-55 56 65 0
-56 44 0
-56 57 0
-57 42 0
-57 58 0
-58 40 0
-58 59 0
-59 -16 39 0
-59 -39 16 0
-60 -61 13 0
-60 61 62 0
-61 49 0
-61 53 0
-62 -63 13 0
-62 63 16 0
-63 48 0
-63 64 0
-64 -16 54 0
-64 -54 16 0
-65 -66 13 0
-65 66 70 0
-66 44 0
-66 67 0
-67 42 0
-67 68 0
-68 38 0
-68 69 0
-69 -16 41 0
-69 -41 16 0
-7 -8 0
-70 -71 13 0
-70 71 74 0
-71 44 0
-71 72 0
-72 42 0
-72 73 0
-73 59 0
-73 69 0
-74 -75 13 0
-74 75 78 0
-75 44 0
-75 76 0
-76 37 0
-76 77 0
-77 -16 43 0
-77 -43 16 0
-78 -79 81 0
-78 79 85 0
-79 44 0
-79 80 0
-8 -10 9 0
-8 -9 10 0
-80 58 0
-80 77 0
-81 -82 16 0
-81 82 35 0
-82 83 0
-82 84 0
-83 -16 50 0
-83 -50 16 0
-84 -16 52 0
-84 -52 16 0
-85 -86 13 0
-85 86 88 0
-86 44 0
-86 87 0
-87 68 0
-87 77 0
-88 -89 13 0
-88 89 91 0
-89 44 0
-89 90 0
-90 73 0
-90 77 0
-91 -92 13 0
-91 92 94 0
-92 36 0
-92 93 0
-93 -16 45 0
-93 -45 16 0
-94 -95 96 0
-94 95 16 0
-95 57 0
-95 93 0
-96 -97 16 0
-96 97 35 0
-97 64 83 0
-98 -99 115 0
-98 99 117 0
-99 -22 100 0
-99 22 56 0
1 -11 -115 0
1 -2 -11 0
1 0
1 2 -115 0
100 -13 -101 0
100 -30 -13 0
100 30 -101 0
101 -102 -56 0
101 -32 -102 0
101 32 -56 0
102 -103 -104 0
102 -35 -103 0
102 35 -104 0
103 -16 -13 0
103 -47 -16 0
103 47 -13 0
104 -13 -105 0
104 -56 -13 0
104 56 -105 0
105 -13 -106 0
105 -66 -13 0
105 66 -106 0
106 -13 -107 0
106 -71 -13 0
106 71 -107 0
107 -13 -108 0
107 -75 -13 0
107 75 -108 0
108 -109 -110 0
108 -79 -109 0
108 79 -110 0
109 -13 -56 0
109 -82 -13 0
109 82 -56 0
11 -12 -14 0
11 -14 -17 0
11 12 -17 0
110 -13 -111 0
110 -86 -13 0
110 86 -111 0
111 -13 -112 0
111 -89 -13 0
111 89 -112 0
112 -13 -113 0
112 -92 -13 0
112 92 -113 0
113 -114 -13 0
113 -95 -114 0
113 95 -13 0
114 -13 -56 0
114 -97 -13 0
114 97 -56 0
115 -15 -116 0
115 15 116 0
117 -115 -161 0
117 -118 -115 0
117 118 -161 0
118 -119 -66 0
118 -22 -119 0
118 22 -66 0
119 -13 -120 0
119 -30 -13 0
119 30 -120 0
12 -5 -13 0
12 5 13 0
120 -121 -66 0
120 -32 -121 0
120 32 -66 0
121 -13 -122 0
121 -35 -13 0
121 35 -122 0
122 -123 -151 0
122 -56 -123 0
122 56 -151 0
123 -13 -124 0
123 -61 -13 0
123 61 -124 0
124 -125 -13 0
124 -63 -125 0
124 63 -13 0
125 -126 -145 0
125 -145 -13 0
125 126 -13 0
126 -127 -142 0
127 -128 -139 0
128 -129 -136 0
129 -130 -133 0
130 -131 -132 0
130 131 132 0
133 -134 -135 0
133 134 135 0
136 -137 -138 0
136 137 138 0
139 -140 -141 0
139 140 141 0
14 -15 -16 0
14 15 16 0
142 -143 -144 0
142 143 144 0
145 -13 -16 0
145 -146 -13 0
145 146 -16 0
146 -147 -149 0
147 -148 -13 0
147 148 13 0
149 -150 -16 0
149 150 16 0
151 -13 -152 0
151 -66 -13 0
151 66 -152 0
152 -13 -153 0
152 -71 -13 0
152 71 -153 0
153 -13 -154 0
153 -75 -13 0
153 75 -154 0
154 -155 -156 0
154 -79 -155 0
154 79 -156 0
155 -13 -66 0
155 -82 -13 0
155 82 -66 0
156 -13 -157 0
156 -86 -13 0
156 86 -157 0
157 -13 -158 0
157 -89 -13 0
157 89 -158 0
158 -13 -159 0
158 -92 -13 0
158 92 -159 0
159 -160 -13 0
159 -95 -160 0
159 95 -13 0
16 0
160 -13 -66 0
160 -97 -13 0
160 97 -66 0
161 -115 -177 0
161 -162 -115 0
161 162 -177 0
162 -163 -71 0
162 -22 -163 0
162 22 -71 0
163 -13 -164 0
163 -30 -13 0
163 30 -164 0
164 -165 -71 0
164 -32 -165 0
164 32 -71 0
165 -13 -166 0
165 -35 -13 0
165 35 -166 0
166 -13 -167 0
166 -56 -13 0
166 56 -167 0
167 -16 -168 0
167 -66 -16 0
167 66 -168 0
168 -13 -169 0
168 -71 -13 0
168 71 -169 0
169 -13 -170 0
169 -75 -13 0
169 75 -170 0
17 -18 -20 0
17 -20 -115 0
17 18 -115 0
170 -171 -172 0
170 -79 -171 0
170 79 -172 0
171 -13 -71 0
171 -82 -13 0
171 82 -71 0
172 -13 -173 0
172 -86 -13 0
172 86 -173 0
173 -13 -174 0
173 -89 -13 0
173 89 -174 0
174 -13 -175 0
174 -92 -13 0
174 92 -175 0
175 -176 -13 0
175 -95 -176 0
175 95 -13 0
176 -13 -71 0
176 -97 -13 0
176 97 -71 0
177 -178 -193 0
177 -193 -194 0
177 178 -194 0
178 -179 -75 0
178 -22 -179 0
178 22 -75 0
179 -13 -180 0
179 -30 -13 0
179 30 -180 0
18 -7 -19 0
180 -181 -75 0
180 -32 -181 0
180 32 -75 0
181 -13 -182 0
181 -35 -13 0
181 35 -182 0
182 -13 -183 0
182 -56 -13 0
182 56 -183 0
183 -13 -184 0
183 -66 -13 0
183 66 -184 0
184 -16 -185 0
184 -71 -16 0
184 71 -185 0
185 -13 -186 0
185 -75 -13 0
185 75 -186 0
186 -187 -188 0
186 -79 -187 0
186 79 -188 0
187 -13 -75 0
187 -82 -13 0
187 82 -75 0
188 -13 -189 0
188 -86 -13 0
188 86 -189 0
189 -13 -190 0
189 -89 -13 0
189 89 -190 0
19 -9 -16 0
19 9 16 0
190 -13 -191 0
190 -92 -13 0
190 92 -191 0
191 -192 -13 0
191 -95 -192 0
191 95 -13 0
192 -13 -75 0
192 -97 -13 0
192 97 -75 0
193 -15 -13 0
193 15 13 0
194 -195 -214 0
194 -214 -220 0
194 195 -220 0
195 -196 -79 0
195 -22 -196 0
195 22 -79 0
196 -13 -197 0
196 -30 -13 0
196 30 -197 0
197 -198 -79 0
197 -32 -198 0
197 32 -79 0
198 -13 -199 0
198 -35 -13 0
198 35 -199 0
199 -200 -204 0
199 -56 -200 0
199 56 -204 0
2 -3 0
2 -7 0
20 -14 -98 0
20 -21 -14 0
20 21 -98 0
200 -13 -201 0
200 -61 -13 0
200 61 -201 0
201 -202 -13 0
201 -63 -202 0
201 63 -13 0
202 -126 -203 0
202 -203 -16 0
202 126 -16 0
203 -146 -16 0
203 -16 -13 0
203 146 -13 0
204 -13 -205 0
204 -66 -13 0
204 66 -205 0
205 -13 -206 0
205 -71 -13 0
205 71 -206 0
206 -16 -207 0
206 -75 -16 0
206 75 -207 0
207 -208 -209 0
207 -79 -208 0
207 79 -209 0
208 -13 -79 0
208 -82 -13 0
208 82 -79 0
209 -13 -210 0
209 -86 -13 0
209 86 -210 0
21 -22 -29 0
21 -29 -35 0
21 22 -35 0
210 -13 -211 0
210 -89 -13 0
210 89 -211 0
211 -13 -212 0
211 -92 -13 0
211 92 -212 0
212 -213 -13 0
212 -95 -213 0
212 95 -13 0
213 -13 -79 0
213 -97 -13 0
213 97 -79 0
214 -14 -115 0
214 -215 -14 0
214 215 -115 0
215 -216 -218 0
216 -217 -16 0
216 217 16 0
218 -219 -16 0
218 219 16 0
22 -23 0
22 -26 0
220 -115 -237 0
220 -221 -115 0
220 221 -237 0
221 -22 -222 0
221 -222 -86 0
221 22 -86 0
222 -13 -223 0
222 -30 -13 0
222 30 -223 0
223 -224 -86 0
223 -32 -224 0
223 32 -86 0
224 -13 -225 0
224 -35 -13 0
224 35 -225 0
225 -226 -227 0
225 -56 -226 0
225 56 -227 0
226 -16 -13 0
226 -61 -16 0
226 61 -13 0
227 -13 -228 0
227 -66 -13 0
227 66 -228 0
228 -13 -229 0
228 -71 -13 0
228 71 -229 0
229 -13 -230 0
229 -75 -13 0
229 75 -230 0
23 24 0
230 -231 -232 0
230 -79 -231 0
230 79 -232 0
231 -13 -86 0
231 -82 -13 0
231 82 -86 0
232 -13 -233 0
232 -86 -13 0
232 86 -233 0
233 -13 -234 0
233 -89 -13 0
233 89 -234 0
234 -13 -235 0
234 -92 -13 0
234 92 -235 0
235 -236 -13 0
235 -95 -236 0
235 95 -13 0
236 -13 -86 0
236 -97 -13 0
236 97 -86 0
237 -115 -253 0
237 -238 -115 0
237 238 -253 0
238 -22 -239 0
238 -239 -89 0
238 22 -89 0
239 -13 -240 0
239 -30 -13 0
239 30 -240 0
24 -6 -25 0
24 6 25 0
240 -241 -89 0
240 -32 -241 0
240 32 -89 0
241 -13 -242 0
241 -35 -13 0
241 35 -242 0
242 -13 -243 0
242 -56 -13 0
242 56 -243 0
243 -13 -244 0
243 -66 -13 0
243 66 -244 0
244 -13 -245 0
244 -71 -13 0
244 71 -245 0
245 -13 -246 0
245 -75 -13 0
245 75 -246 0
246 -247 -248 0
246 -79 -247 0
246 79 -248 0
247 -13 -89 0
247 -82 -13 0
247 82 -89 0
248 -16 -249 0
248 -86 -16 0
248 86 -249 0
249 -13 -250 0
249 -89 -13 0
249 89 -250 0
250 -13 -251 0
250 -92 -13 0
250 92 -251 0
251 -252 -13 0
251 -95 -252 0
251 95 -13 0
252 -13 -89 0
252 -97 -13 0
252 97 -89 0
253 -193 -269 0
253 -254 -193 0
253 254 -269 0
254 -22 -255 0
254 -255 -92 0
254 22 -92 0
255 -13 -256 0
255 -30 -13 0
255 30 -256 0
256 -257 -92 0
256 -32 -257 0
256 32 -92 0
257 -13 -258 0
257 -35 -13 0
257 35 -258 0
258 -13 -259 0
258 -56 -13 0
258 56 -259 0
259 -13 -260 0
259 -66 -13 0
259 66 -260 0
26 27 0
260 -13 -261 0
260 -71 -13 0
260 71 -261 0
261 -13 -262 0
261 -75 -13 0
261 75 -262 0
262 -263 -264 0
262 -79 -263 0
262 79 -264 0
263 -13 -92 0
263 -82 -13 0
263 82 -92 0
264 -13 -265 0
264 -86 -13 0
264 86 -265 0
265 -16 -266 0
265 -89 -16 0
265 89 -266 0
266 -13 -267 0
266 -92 -13 0
266 92 -267 0
267 -268 -13 0
267 -95 -268 0
267 95 -13 0
268 -13 -92 0
268 -97 -13 0
268 97 -92 0
269 -270 -285 0
269 -285 -14 0
269 270 -14 0
27 -10 -28 0
27 10 28 0
270 -22 -271 0
270 -271 -95 0
270 22 -95 0
271 -13 -272 0
271 -30 -13 0
271 30 -272 0
272 -273 -95 0
272 -32 -273 0
272 32 -95 0
273 -13 -274 0
273 -35 -13 0
273 35 -274 0
274 -13 -275 0
274 -56 -13 0
274 56 -275 0
275 -13 -276 0
275 -66 -13 0
275 66 -276 0
276 -13 -277 0
276 -71 -13 0
276 71 -277 0
277 -13 -278 0
277 -75 -13 0
277 75 -278 0
278 -279 -280 0
278 -79 -279 0
278 79 -280 0
279 -13 -95 0
279 -82 -13 0
279 82 -95 0
280 -13 -281 0
280 -86 -13 0
280 86 -281 0
281 -13 -282 0
281 -89 -13 0
281 89 -282 0
282 -16 -283 0
282 -92 -16 0
282 92 -283 0
283 -284 -13 0
283 -95 -284 0
283 95 -13 0
284 -13 -95 0
284 -97 -13 0
284 97 -95 0
285 -14 -115 0
285 -286 -14 0
285 286 -115 0
286 -216 0
286 -287 0
287 -288 -16 0
287 288 16 0
29 -16 -31 0
29 -30 -16 0
29 30 -31 0
3 4 0
30 -6 -13 0
30 6 13 0
31 -32 -34 0
31 -34 -35 0
31 32 -35 0
32 -26 -33 0
33 -10 -16 0
33 10 16 0
34 -35 -46 0
34 -46 -55 0
34 35 -55 0
35 -36 -44 0
36 -37 -42 0
37 -38 -40 0
38 -39 -13 0
38 39 13 0
4 -5 -6 0
4 5 6 0
40 -41 -13 0
40 41 13 0
42 -43 -13 0
42 43 13 0
44 -45 -13 0
44 45 13 0
46 -13 -16 0
46 -47 -13 0
46 47 -16 0
47 -48 0
47 -53 0
48 -49 -51 0
49 -50 -13 0
49 50 13 0
51 -52 -13 0
51 52 13 0
53 -54 -13 0
53 54 13 0
55 -56 -60 0
55 -60 -65 0
55 56 -65 0
56 -57 -44 0
57 -58 -42 0
58 -59 -40 0
59 -39 -16 0
59 39 16 0
60 -13 -62 0
60 -61 -13 0
60 61 -62 0
61 -53 -49 0
62 -13 -16 0
62 -63 -13 0
62 63 -16 0
63 -48 -64 0
64 -54 -16 0
64 54 16 0
65 -13 -70 0
65 -66 -13 0
65 66 -70 0
66 -67 -44 0
67 -68 -42 0
68 -38 -69 0
69 -41 -16 0
69 41 16 0
7 8 0
70 -13 -74 0
70 -71 -13 0
70 71 -74 0
71 -72 -44 0
72 -73 -42 0
73 -59 -69 0
74 -13 -78 0
74 -75 -13 0
74 75 -78 0
75 -76 -44 0
76 -37 -77 0
77 -43 -16 0
77 43 16 0
78 -79 -81 0
78 -81 -85 0
78 79 -85 0
79 -80 -44 0
8 -9 -10 0
8 9 10 0
80 -58 -77 0
81 -16 -35 0
81 -82 -16 0
81 82 -35 0
82 -83 -84 0
83 -50 -16 0
83 50 16 0
84 -52 -16 0
84 52 16 0
85 -13 -88 0
85 -86 -13 0
85 86 -88 0
86 -87 -44 0
87 -68 -77 0
88 -13 -91 0
88 -89 -13 0
88 89 -91 0
89 -90 -44 0
90 -73 -77 0
91 -13 -94 0
91 -92 -13 0
91 92 -94 0
92 -36 -93 0
93 -45 -16 0
93 45 16 0
94 -95 -96 0
94 -96 -16 0
94 95 -16 0
95 -57 -93 0
96 -16 -35 0
96 -97 -16 0
96 97 -35 0
97 -64 0
97 -83 0
98 -115 -117 0
98 -99 -115 0
98 99 -117 0
99 -100 -56 0
99 -22 -100 0
99 22 -56 0
